NAME : pairopt
TYPE : ACVRP
DIMENSION : 5
EDGE_WEIGHT_TYPE : EXPLICIT
EDGE_WEIGHT_FORMAT : FULL_MATRIX
CAPACITY : 7500
VEHICLES : 2
EDGE_WEIGHT_SECTION
100000 -100000 -100000 100000 100000 
100000 100000 1000000 50444 50249 
100000 1000000 100000 531 50585 
0 50444 531 100000 250 
0 50249 50585 250 100000 
DEMAND_SECTION
1 0
2 0
3 0
4 5000
5 5000
DEPOT_SECTION
1
EOF